(declare-const fee_bl Real)
(declare-const income Real)
(declare-const p675 Real)
(declare-const p875 Real)
(declare-const p475 Real)
(declare-const p990 Real)
(assert (= p475 (* 0.0475 (ite (> income 8800) 8800 income))))
(assert (= p675 (ite (> income 8800) (* 0.0675 (- (ite (> income 22100) 22100 income) 8800)) 0)))
(assert (= p875 (ite (> income 22100) (* 0.0875 (- (ite (> income 250000) 250000 income) 22100)) 0)))
(assert (= p990 (ite (> income 250000) (* 0.0990 (- income 250000)) 0)))
(assert (= fee_bl (+ (+ (+ p475 p675) p875) p990)))